Geographic Exponential Decay
20 318 212 25 225 85 190 15 286 48 100 0 46 207 110 240 73 158 279 34 166
p edge 320 1265
e 0 34 86.0
e 0 41 42.0
e 0 66 17.0
e 0 65 98.0
e 0 254 37.0
e 0 301 27.0
e 0 194 46.0
e 0 8 89.0
e 0 305 77.0
e 0 52 17.0
e 0 269 47.0
e 0 119 29.0
e 0 48 99.0
e 0 90 59.0
e 0 113 41.0
e 0 260 54.0
e 0 234 3.0
e 0 158 77.0
e 0 47 55.0
e 0 250 60.0
e 0 42 95.0
e 0 262 100.0
e 0 302 29.0
e 0 12 89.0
e 0 283 25.0
e 0 277 62.0
e 0 259 30.0
e 0 72 96.0
e 0 115 26.0
e 0 148 70.0
e 0 193 87.0
e 0 4 34.0
e 0 263 36.0
e 0 136 21.0
e 0 267 49.0
e 0 30 49.0
e 0 208 8.0
e 1 302 5.0
e 1 318 8.0
e 1 190 79.0
e 1 251 5.0
e 1 143 4.0
e 2 152 3.0
e 2 40 7.0
e 2 82 11.0
e 2 39 2.0
e 2 196 5.0
e 3 236 1.0
e 3 246 7.0
e 4 111 1.0
e 5 260 8.0
e 5 58 1.0
e 6 305 25.0
e 6 151 4.0
e 7 191 12.0
e 7 103 20.0
e 8 15 60.0
e 9 256 1.0
e 9 27 3.0
e 9 259 4.0
e 10 89 5.0
e 10 293 11.0
e 10 193 1.0
e 10 102 1.0
e 10 130 8.0
e 11 193 2.0
e 11 26 20.0
e 12 106 20.0
e 12 237 10.0
e 12 165 3.0
e 12 134 5.0
e 13 142 1.0
e 13 249 3.0
e 14 228 1.0
e 14 260 8.0
e 15 241 71.0
e 15 224 91.0
e 15 92 16.0
e 15 62 3.0
e 15 100 97.0
e 15 111 29.0
e 15 58 96.0
e 15 288 40.0
e 15 93 67.0
e 15 118 18.0
e 15 56 66.0
e 15 87 33.0
e 15 227 52.0
e 15 21 84.0
e 15 12 22.0
e 15 290 49.0
e 15 263 91.0
e 15 136 37.0
e 15 255 51.0
e 15 308 82.0
e 15 215 73.0
e 15 266 87.0
e 15 34 41.0
e 15 316 77.0
e 15 293 95.0
e 15 148 81.0
e 15 207 14.0
e 15 267 80.0
e 15 181 9.0
e 15 91 3.0
e 15 173 47.0
e 15 129 58.0
e 15 252 33.0
e 15 292 50.0
e 15 150 70.0
e 15 138 10.0
e 16 284 40.0
e 16 116 42.0
e 16 171 18.0
e 16 273 10.0
e 16 285 21.0
e 16 248 18.0
e 16 277 27.0
e 16 96 5.0
e 16 12 16.0
e 16 138 23.0
e 16 112 25.0
e 16 175 6.0
e 16 84 18.0
e 16 302 1.0
e 16 117 21.0
e 16 246 40.0
e 16 23 40.0
e 16 178 15.0
e 16 293 24.0
e 17 154 1.0
e 17 15 83.0
e 18 272 1.0
e 18 235 1.0
e 19 171 4.0
e 19 202 46.0
e 19 69 10.0
e 19 125 9.0
e 19 24 49.0
e 19 71 43.0
e 19 294 27.0
e 19 246 9.0
e 19 216 21.0
e 19 120 15.0
e 19 225 43.0
e 19 152 15.0
e 19 317 12.0
e 19 127 15.0
e 19 218 24.0
e 19 31 1.0
e 19 263 11.0
e 19 113 27.0
e 19 268 8.0
e 20 207 69.0
e 20 278 8.0
e 20 74 43.0
e 21 184 2.0
e 21 179 3.0
e 21 173 8.0
e 21 279 33.0
e 22 51 5.0
e 22 86 1.0
e 23 219 2.0
e 23 119 2.0
e 24 82 2.0
e 25 216 10.0
e 25 192 81.0
e 25 43 22.0
e 25 277 34.0
e 25 159 27.0
e 25 153 86.0
e 25 119 79.0
e 25 299 74.0
e 25 22 34.0
e 25 31 36.0
e 25 76 15.0
e 25 219 80.0
e 25 255 1.0
e 25 184 37.0
e 25 114 67.0
e 25 144 18.0
e 25 17 16.0
e 25 232 88.0
e 25 109 13.0
e 25 301 97.0
e 25 107 70.0
e 25 237 32.0
e 25 143 16.0
e 25 193 13.0
e 25 208 31.0
e 25 93 52.0
e 25 235 83.0
e 25 97 84.0
e 25 217 52.0
e 25 310 4.0
e 25 2 41.0
e 25 102 25.0
e 25 117 61.0
e 25 267 32.0
e 25 292 26.0
e 25 251 69.0
e 25 218 22.0
e 26 278 19.0
e 26 228 11.0
e 26 123 11.0
e 26 260 9.0
e 26 2 23.0
e 26 29 14.0
e 26 94 20.0
e 26 259 23.0
e 26 227 22.0
e 27 284 2.0
e 28 104 1.0
e 28 183 1.0
e 29 301 2.0
e 30 279 2.0
e 31 163 9.0
e 31 47 22.0
e 31 125 13.0
e 31 126 23.0
e 31 145 1.0
e 31 38 21.0
e 31 295 10.0
e 31 282 19.0
e 32 136 1.0
e 32 18 2.0
e 33 256 1.0
e 33 122 1.0
e 34 266 21.0
e 34 279 19.0
e 34 172 4.0
e 34 174 66.0
e 34 67 82.0
e 34 66 14.0
e 34 140 50.0
e 34 297 3.0
e 34 293 45.0
e 34 220 62.0
e 34 178 5.0
e 34 276 14.0
e 34 262 78.0
e 34 132 92.0
e 34 169 16.0
e 34 308 20.0
e 34 170 73.0
e 34 317 69.0
e 34 180 2.0
e 34 270 56.0
e 34 195 6.0
e 34 120 11.0
e 34 240 96.0
e 34 280 71.0
e 34 65 22.0
e 34 113 22.0
e 34 4 69.0
e 34 129 61.0
e 34 135 28.0
e 34 30 87.0
e 34 1 96.0
e 34 74 63.0
e 34 184 34.0
e 34 92 74.0
e 34 233 11.0
e 35 32 6.0
e 35 84 26.0
e 35 291 11.0
e 35 276 5.0
e 35 207 52.0
e 36 63 5.0
e 36 100 84.0
e 37 310 2.0
e 37 282 18.0
e 38 106 4.0
e 38 30 5.0
e 38 227 4.0
e 38 1 1.0
e 39 210 1.0
e 40 218 5.0
e 40 197 1.0
e 40 64 12.0
e 40 78 8.0
e 41 260 5.0
e 42 136 1.0
e 43 65 4.0
e 43 44 4.0
e 43 218 2.0
e 43 89 1.0
e 44 149 4.0
e 44 232 4.0
e 45 251 4.0
e 45 138 5.0
e 45 229 4.0
e 46 205 7.0
e 46 273 85.0
e 46 307 54.0
e 46 250 11.0
e 46 221 85.0
e 46 7 82.0
e 46 18 31.0
e 46 211 85.0
e 46 207 88.0
e 46 269 5.0
e 46 150 65.0
e 46 274 86.0
e 46 62 79.0
e 46 195 15.0
e 46 233 57.0
e 46 180 12.0
e 46 240 86.0
e 46 30 63.0
e 46 110 79.0
e 46 31 91.0
e 46 315 66.0
e 46 252 88.0
e 46 104 41.0
e 46 254 67.0
e 46 45 50.0
e 46 56 1.0
e 46 29 31.0
e 46 210 66.0
e 46 114 14.0
e 46 78 99.0
e 46 43 29.0
e 46 121 2.0
e 46 153 15.0
e 46 72 83.0
e 46 165 12.0
e 46 304 26.0
e 46 107 25.0
e 48 303 26.0
e 48 287 22.0
e 48 175 56.0
e 48 8 91.0
e 48 199 84.0
e 48 129 4.0
e 48 153 51.0
e 48 29 44.0
e 48 56 16.0
e 48 131 57.0
e 48 130 44.0
e 48 118 82.0
e 48 145 57.0
e 48 250 56.0
e 48 132 28.0
e 48 242 67.0
e 48 194 91.0
e 48 74 69.0
e 48 128 11.0
e 48 282 38.0
e 48 239 28.0
e 48 15 39.0
e 48 268 4.0
e 48 231 98.0
e 48 177 87.0
e 48 63 46.0
e 48 181 64.0
e 48 122 4.0
e 48 93 15.0
e 48 49 17.0
e 48 105 100.0
e 48 272 37.0
e 48 24 9.0
e 48 119 94.0
e 48 40 73.0
e 48 290 94.0
e 49 11 2.0
e 49 39 1.0
e 49 178 25.0
e 49 129 3.0
e 50 223 17.0
e 50 62 3.0
e 50 210 9.0
e 50 15 39.0
e 50 220 5.0
e 51 166 58.0
e 51 306 1.0
e 52 94 2.0
e 52 19 24.0
e 53 16 41.0
e 53 23 8.0
e 53 151 2.0
e 53 237 4.0
e 53 269 6.0
e 54 260 6.0
e 54 233 3.0
e 55 5 11.0
e 55 250 2.0
e 55 199 5.0
e 55 229 4.0
e 55 20 1.0
e 57 113 11.0
e 57 81 1.0
e 59 48 21.0
e 59 164 3.0
e 59 136 8.0
e 59 74 2.0
e 59 121 4.0
e 60 242 36.0
e 60 200 8.0
e 61 39 2.0
e 61 47 1.0
e 63 282 20.0
e 64 230 2.0
e 65 317 8.0
e 65 311 4.0
e 67 100 36.0
e 68 43 1.0
e 68 31 13.0
e 69 316 1.0
e 70 313 6.0
e 70 206 4.0
e 70 242 37.0
e 71 164 5.0
e 71 150 3.0
e 72 87 5.0
e 73 62 76.0
e 73 94 3.0
e 73 126 75.0
e 73 53 17.0
e 73 216 60.0
e 73 182 59.0
e 73 72 40.0
e 73 229 53.0
e 73 268 18.0
e 73 25 24.0
e 73 74 14.0
e 73 288 38.0
e 73 235 43.0
e 73 290 36.0
e 73 291 1.0
e 73 218 69.0
e 73 127 93.0
e 73 289 38.0
e 73 220 17.0
e 73 242 25.0
e 73 183 30.0
e 73 162 92.0
e 73 154 65.0
e 73 26 40.0
e 73 109 98.0
e 73 66 97.0
e 73 82 53.0
e 73 233 76.0
e 73 102 57.0
e 73 234 76.0
e 73 174 60.0
e 73 267 29.0
e 73 128 21.0
e 73 44 70.0
e 73 283 23.0
e 73 91 4.0
e 73 236 50.0
e 74 50 1.0
e 74 121 44.0
e 74 258 10.0
e 74 147 2.0
e 74 153 29.0
e 74 126 34.0
e 74 44 7.0
e 74 279 1.0
e 74 259 9.0
e 74 68 46.0
e 74 129 23.0
e 74 21 1.0
e 74 189 17.0
e 74 100 54.0
e 75 178 3.0
e 75 4 1.0
e 76 165 2.0
e 77 146 1.0
e 77 191 11.0
e 77 116 2.0
e 78 290 4.0
e 78 65 7.0
e 78 93 5.0
e 79 153 1.0
e 79 306 1.0
e 80 181 1.0
e 80 44 2.0
e 81 52 4.0
e 83 237 1.0
e 83 134 1.0
e 84 315 1.0
e 84 247 36.0
e 84 102 27.0
e 84 184 14.0
e 84 88 32.0
e 84 252 21.0
e 84 63 36.0
e 84 282 17.0
e 84 15 73.0
e 84 40 24.0
e 84 186 13.0
e 84 232 12.0
e 84 83 3.0
e 84 11 24.0
e 84 317 43.0
e 84 180 5.0
e 84 30 16.0
e 85 256 43.0
e 85 73 87.0
e 85 159 70.0
e 85 148 13.0
e 85 24 4.0
e 85 41 5.0
e 85 115 81.0
e 85 137 64.0
e 85 292 95.0
e 85 315 98.0
e 85 60 24.0
e 85 76 72.0
e 85 74 62.0
e 85 52 76.0
e 85 214 35.0
e 85 252 28.0
e 85 149 50.0
e 85 134 30.0
e 85 197 39.0
e 85 96 86.0
e 85 294 30.0
e 85 30 31.0
e 85 290 8.0
e 85 161 86.0
e 85 25 14.0
e 85 15 98.0
e 85 100 66.0
e 85 176 7.0
e 85 83 86.0
e 85 237 45.0
e 85 121 31.0
e 85 243 53.0
e 85 14 49.0
e 85 293 92.0
e 85 49 63.0
e 85 111 85.0
e 85 316 13.0
e 86 113 1.0
e 87 7 3.0
e 88 122 10.0
e 88 67 3.0
e 88 261 8.0
e 88 73 34.0
e 90 246 24.0
e 90 269 2.0
e 90 1 2.0
e 90 257 2.0
e 90 94 8.0
e 90 66 22.0
e 90 124 22.0
e 90 181 3.0
e 90 18 2.0
e 91 201 7.0
e 91 214 5.0
e 91 253 1.0
e 95 49 4.0
e 95 50 12.0
e 95 60 4.0
e 96 203 1.0
e 97 313 1.0
e 97 100 21.0
e 98 116 17.0
e 98 141 19.0
e 98 115 18.0
e 98 0 89.0
e 98 28 19.0
e 98 220 4.0
e 98 231 6.0
e 98 136 17.0
e 98 263 18.0
e 98 51 14.0
e 99 110 32.0
e 99 313 3.0
e 99 146 5.0
e 100 279 13.0
e 100 231 48.0
e 100 28 51.0
e 100 212 21.0
e 100 158 75.0
e 100 159 94.0
e 100 261 36.0
e 100 129 94.0
e 100 35 78.0
e 100 49 7.0
e 100 232 47.0
e 100 239 80.0
e 100 203 13.0
e 100 195 89.0
e 100 24 87.0
e 100 216 19.0
e 100 64 37.0
e 100 18 96.0
e 100 8 8.0
e 100 167 34.0
e 100 296 87.0
e 100 254 95.0
e 100 89 7.0
e 100 273 15.0
e 100 291 76.0
e 100 21 4.0
e 100 188 71.0
e 100 228 80.0
e 100 151 17.0
e 100 234 24.0
e 100 295 25.0
e 101 28 3.0
e 101 62 1.0
e 103 305 21.0
e 103 238 4.0
e 103 3 20.0
e 103 136 1.0
e 103 13 6.0
e 103 167 24.0
e 103 156 12.0
e 103 236 5.0
e 103 18 23.0
e 104 74 21.0
e 104 116 5.0
e 104 9 1.0
e 104 19 30.0
e 104 139 5.0
e 104 148 3.0
e 104 205 21.0
e 104 180 9.0
e 105 74 2.0
e 105 184 24.0
e 105 0 20.0
e 105 27 13.0
e 105 269 22.0
e 105 34 54.0
e 105 243 11.0
e 105 75 9.0
e 105 166 57.0
e 106 284 23.0
e 106 131 8.0
e 106 100 29.0
e 106 291 17.0
e 106 245 1.0
e 106 40 1.0
e 106 114 4.0
e 106 194 13.0
e 107 313 23.0
e 107 218 19.0
e 107 238 12.0
e 107 188 24.0
e 107 114 10.0
e 107 134 5.0
e 107 175 11.0
e 107 12 18.0
e 108 239 1.0
e 108 119 1.0
e 110 276 66.0
e 110 211 58.0
e 110 31 15.0
e 110 118 37.0
e 110 166 68.0
e 110 79 5.0
e 110 13 91.0
e 110 40 2.0
e 110 249 53.0
e 110 108 7.0
e 110 80 61.0
e 110 204 100.0
e 110 47 35.0
e 110 304 37.0
e 110 182 84.0
e 110 14 53.0
e 110 236 74.0
e 110 252 52.0
e 110 280 6.0
e 110 141 56.0
e 110 253 22.0
e 110 213 43.0
e 110 112 87.0
e 110 4 86.0
e 110 122 77.0
e 110 194 76.0
e 110 49 28.0
e 110 173 27.0
e 110 145 34.0
e 110 189 37.0
e 110 281 23.0
e 110 186 83.0
e 110 205 84.0
e 110 55 47.0
e 110 11 93.0
e 112 33 11.0
e 112 178 6.0
e 112 247 4.0
e 116 130 1.0
e 120 251 5.0
e 123 94 3.0
e 124 59 5.0
e 124 17 5.0
e 125 181 5.0
e 125 213 1.0
e 125 107 4.0
e 130 59 3.0
e 130 183 2.0
e 132 79 1.0
e 133 53 6.0
e 133 127 1.0
e 135 148 2.0
e 135 209 5.0
e 137 246 7.0
e 139 12 5.0
e 139 80 10.0
e 139 17 9.0
e 139 249 1.0
e 140 62 3.0
e 142 277 1.0
e 144 132 2.0
e 146 259 2.0
e 147 240 36.0
e 147 9 2.0
e 147 312 16.0
e 147 281 20.0
e 147 237 11.0
e 147 255 10.0
e 147 253 25.0
e 147 274 16.0
e 147 245 24.0
e 149 231 6.0
e 149 21 6.0
e 149 16 21.0
e 151 113 2.0
e 151 314 12.0
e 152 34 69.0
e 152 235 7.0
e 152 282 25.0
e 155 3 2.0
e 155 282 4.0
e 156 179 8.0
e 157 96 2.0
e 157 49 1.0
e 157 72 4.0
e 157 151 12.0
e 157 279 71.0
e 158 198 80.0
e 158 163 22.0
e 158 35 55.0
e 158 167 19.0
e 158 170 57.0
e 158 90 57.0
e 158 133 88.0
e 158 277 53.0
e 158 178 39.0
e 158 83 12.0
e 158 279 83.0
e 158 236 95.0
e 158 253 83.0
e 158 139 59.0
e 158 108 39.0
e 158 275 64.0
e 158 264 71.0
e 158 70 10.0
e 158 238 57.0
e 158 307 60.0
e 158 146 54.0
e 158 185 4.0
e 158 95 65.0
e 158 47 23.0
e 158 45 49.0
e 158 135 69.0
e 158 91 98.0
e 158 131 55.0
e 158 88 46.0
e 158 92 89.0
e 158 212 35.0
e 158 221 25.0
e 158 93 30.0
e 158 123 58.0
e 158 107 71.0
e 160 43 20.0
e 160 8 16.0
e 160 171 17.0
e 160 0 80.0
e 160 265 12.0
e 160 239 3.0
e 160 59 23.0
e 160 37 16.0
e 160 53 19.0
e 160 211 7.0
e 161 286 3.0
e 162 183 11.0
e 162 196 1.0
e 162 204 8.0
e 162 135 10.0
e 166 38 34.0
e 166 7 92.0
e 166 97 67.0
e 166 102 88.0
e 166 191 77.0
e 166 147 25.0
e 166 229 79.0
e 166 283 81.0
e 166 79 9.0
e 166 223 58.0
e 166 178 72.0
e 166 277 99.0
e 166 41 51.0
e 166 251 38.0
e 166 308 92.0
e 166 226 48.0
e 166 131 81.0
e 166 237 60.0
e 166 261 58.0
e 166 3 57.0
e 166 0 82.0
e 166 49 75.0
e 166 185 29.0
e 166 127 72.0
e 166 1 36.0
e 166 67 51.0
e 166 197 96.0
e 166 307 17.0
e 166 239 2.0
e 166 224 58.0
e 166 252 1.0
e 166 192 54.0
e 166 34 50.0
e 166 80 31.0
e 168 55 3.0
e 168 64 6.0
e 168 252 5.0
e 169 123 10.0
e 169 279 52.0
e 169 136 5.0
e 169 177 5.0
e 170 31 15.0
e 170 208 3.0
e 170 98 3.0
e 170 146 8.0
e 170 119 5.0
e 170 84 44.0
e 170 2 25.0
e 170 229 19.0
e 172 52 3.0
e 175 239 10.0
e 175 302 9.0
e 176 216 2.0
e 178 250 11.0
e 178 208 6.0
e 178 235 2.0
e 179 306 8.0
e 179 245 3.0
e 179 96 10.0
e 185 50 6.0
e 186 153 3.0
e 186 95 1.0
e 186 120 5.0
e 187 38 1.0
e 187 124 6.0
e 188 207 28.0
e 188 167 8.0
e 188 76 4.0
e 189 125 11.0
e 190 110 99.0
e 190 253 2.0
e 190 238 39.0
e 190 7 55.0
e 190 117 90.0
e 190 120 62.0
e 190 118 37.0
e 190 311 16.0
e 190 35 51.0
e 190 5 5.0
e 190 4 85.0
e 190 63 4.0
e 190 293 72.0
e 190 6 26.0
e 190 227 93.0
e 190 313 8.0
e 190 286 2.0
e 190 156 54.0
e 190 100 11.0
e 190 272 40.0
e 190 216 30.0
e 190 46 5.0
e 190 44 14.0
e 190 170 56.0
e 190 180 88.0
e 190 9 50.0
e 190 74 41.0
e 190 75 80.0
e 190 23 25.0
e 190 219 28.0
e 190 62 25.0
e 190 279 42.0
e 190 270 97.0
e 190 93 99.0
e 190 310 5.0
e 190 54 18.0
e 191 167 1.0
e 191 144 10.0
e 198 223 9.0
e 200 205 6.0
e 200 86 10.0
e 200 94 11.0
e 200 88 1.0
e 201 255 1.0
e 202 42 2.0
e 206 166 49.0
e 206 169 6.0
e 207 41 8.0
e 207 226 66.0
e 207 245 26.0
e 207 295 70.0
e 207 142 99.0
e 207 25 51.0
e 207 240 92.0
e 207 204 87.0
e 207 314 85.0
e 207 80 60.0
e 207 136 73.0
e 207 191 50.0
e 207 209 57.0
e 207 203 54.0
e 207 294 67.0
e 207 195 11.0
e 207 265 27.0
e 207 22 2.0
e 207 189 81.0
e 207 210 21.0
e 207 233 5.0
e 207 190 34.0
e 207 164 7.0
e 207 231 97.0
e 207 91 72.0
e 207 99 60.0
e 207 66 63.0
e 207 34 19.0
e 207 197 47.0
e 207 312 38.0
e 207 79 79.0
e 207 156 11.0
e 208 121 6.0
e 208 185 16.0
e 208 184 22.0
e 208 165 10.0
e 208 13 23.0
e 208 29 8.0
e 209 161 8.0
e 209 240 36.0
e 209 239 2.0
e 212 229 87.0
e 212 97 27.0
e 212 137 47.0
e 212 203 5.0
e 212 192 84.0
e 212 195 20.0
e 212 84 48.0
e 212 315 78.0
e 212 282 49.0
e 212 23 97.0
e 212 306 17.0
e 212 15 68.0
e 212 214 65.0
e 212 303 65.0
e 212 40 84.0
e 212 172 81.0
e 212 31 56.0
e 212 186 82.0
e 212 109 24.0
e 212 91 1.0
e 212 28 87.0
e 212 99 30.0
e 212 297 87.0
e 212 270 28.0
e 212 253 21.0
e 212 92 69.0
e 212 27 92.0
e 212 41 91.0
e 212 88 60.0
e 212 289 89.0
e 212 146 99.0
e 212 184 62.0
e 212 255 78.0
e 212 174 44.0
e 212 127 45.0
e 215 144 1.0
e 217 150 1.0
e 221 166 92.0
e 221 86 19.0
e 221 43 1.0
e 221 71 3.0
e 221 64 3.0
e 221 78 9.0
e 221 306 5.0
e 221 79 22.0
e 222 110 43.0
e 222 265 3.0
e 223 115 21.0
e 223 66 2.0
e 223 273 10.0
e 223 262 3.0
e 223 116 3.0
e 223 158 16.0
e 223 97 1.0
e 224 41 10.0
e 224 63 8.0
e 224 92 8.0
e 225 146 71.0
e 225 178 23.0
e 225 180 92.0
e 225 127 77.0
e 225 140 94.0
e 225 151 82.0
e 225 135 100.0
e 225 109 12.0
e 225 5 46.0
e 225 29 52.0
e 225 120 36.0
e 225 278 24.0
e 225 269 82.0
e 225 136 21.0
e 225 167 44.0
e 225 295 23.0
e 225 18 75.0
e 225 60 61.0
e 225 64 100.0
e 225 55 89.0
e 225 235 10.0
e 225 81 27.0
e 225 6 53.0
e 225 261 75.0
e 225 156 64.0
e 225 17 85.0
e 225 129 11.0
e 225 283 28.0
e 225 128 4.0
e 225 314 51.0
e 225 20 50.0
e 225 21 100.0
e 225 218 64.0
e 225 46 54.0
e 225 34 32.0
e 225 101 11.0
e 226 167 2.0
e 226 112 2.0
e 226 76 4.0
e 230 298 3.0
e 240 93 88.0
e 240 315 47.0
e 240 21 67.0
e 240 110 46.0
e 240 318 28.0
e 240 35 54.0
e 240 288 91.0
e 240 289 35.0
e 240 28 29.0
e 240 112 72.0
e 240 225 41.0
e 240 90 50.0
e 240 66 57.0
e 240 96 93.0
e 240 290 90.0
e 240 36 41.0
e 240 67 84.0
e 240 167 38.0
e 240 197 81.0
e 240 123 39.0
e 240 13 53.0
e 240 222 36.0
e 240 84 8.0
e 240 68 93.0
e 240 153 70.0
e 240 118 90.0
e 240 142 94.0
e 240 50 8.0
e 240 310 96.0
e 240 287 75.0
e 240 72 18.0
e 240 228 16.0
e 241 5 1.0
e 241 306 3.0
e 242 133 42.0
e 242 72 19.0
e 242 54 46.0
e 242 140 38.0
e 242 210 40.0
e 242 134 48.0
e 242 254 4.0
e 242 281 22.0
e 242 216 49.0
e 242 83 46.0
e 242 279 40.0
e 242 227 5.0
e 242 59 1.0
e 242 71 41.0
e 242 164 38.0
e 243 170 24.0
e 243 69 9.0
e 243 104 16.0
e 244 133 5.0
e 244 33 5.0
e 244 68 1.0
e 247 101 5.0
e 248 243 10.0
e 248 143 8.0
e 248 92 2.0
e 248 205 8.0
e 257 174 9.0
e 257 161 11.0
e 257 130 8.0
e 257 93 6.0
e 258 161 1.0
e 262 175 10.0
e 262 27 2.0
e 263 245 6.0
e 263 89 10.0
e 263 12 6.0
e 263 80 3.0
e 263 28 13.0
e 263 196 24.0
e 264 124 2.0
e 265 305 24.0
e 265 166 90.0
e 265 73 66.0
e 265 259 17.0
e 265 96 13.0
e 265 302 11.0
e 265 212 7.0
e 266 242 27.0
e 271 220 2.0
e 271 63 3.0
e 275 37 5.0
e 275 113 11.0
e 278 219 6.0
e 278 32 3.0
e 279 20 77.0
e 279 166 20.0
e 279 193 31.0
e 279 217 14.0
e 279 4 32.0
e 279 262 28.0
e 279 236 11.0
e 279 25 8.0
e 279 224 38.0
e 279 278 92.0
e 279 255 16.0
e 279 6 89.0
e 279 235 38.0
e 279 299 50.0
e 279 143 70.0
e 279 91 57.0
e 279 26 33.0
e 279 280 48.0
e 279 248 92.0
e 279 215 95.0
e 279 197 80.0
e 279 80 37.0
e 279 296 43.0
e 279 47 65.0
e 279 171 77.0
e 279 187 35.0
e 279 39 59.0
e 282 296 3.0
e 282 108 17.0
e 283 75 19.0
e 283 242 6.0
e 283 138 7.0
e 283 307 13.0
e 283 36 4.0
e 283 290 16.0
e 285 37 3.0
e 285 314 1.0
e 286 96 13.0
e 286 273 13.0
e 286 145 97.0
e 286 104 59.0
e 286 85 75.0
e 286 201 97.0
e 286 212 50.0
e 286 83 54.0
e 286 171 62.0
e 286 54 66.0
e 286 187 14.0
e 286 158 68.0
e 286 202 51.0
e 286 57 5.0
e 286 316 99.0
e 286 206 70.0
e 286 41 58.0
e 286 264 80.0
e 286 268 46.0
e 286 112 39.0
e 286 58 79.0
e 286 28 10.0
e 286 107 35.0
e 286 71 74.0
e 286 258 66.0
e 286 283 24.0
e 286 306 59.0
e 286 311 9.0
e 286 140 5.0
e 286 11 45.0
e 286 32 48.0
e 286 173 17.0
e 286 250 98.0
e 286 312 5.0
e 286 203 10.0
e 297 12 3.0
e 298 65 10.0
e 298 254 1.0
e 298 280 3.0
e 298 153 4.0
e 300 109 2.0
e 300 47 3.0
e 300 218 4.0
e 305 306 3.0
e 305 121 18.0
e 305 266 4.0
e 305 254 14.0
e 305 134 6.0
e 305 163 13.0
e 308 139 2.0
e 308 299 10.0
e 308 88 25.0
e 308 235 19.0
e 308 199 1.0
e 308 84 6.0
e 308 10 12.0
e 309 238 4.0
e 309 129 1.0
e 309 137 1.0
e 318 295 23.0
e 318 222 61.0
e 318 310 63.0
e 318 76 34.0
e 318 11 54.0
e 318 305 100.0
e 318 268 87.0
e 318 235 47.0
e 318 266 91.0
e 318 202 64.0
e 318 230 18.0
e 318 264 12.0
e 318 77 60.0
e 318 122 69.0
e 318 55 82.0
e 318 82 33.0
e 318 43 38.0
e 318 249 41.0
e 318 245 22.0
e 318 272 1.0
e 318 28 4.0
e 318 196 11.0
e 318 27 75.0
e 318 237 74.0
e 318 60 62.0
e 318 114 41.0
e 318 2 53.0
e 318 59 3.0
e 318 186 98.0
e 318 301 52.0
e 318 58 70.0
e 318 195 39.0
e 318 265 12.0
e 318 42 50.0
e 318 269 69.0
e 319 17 1.0
e 319 315 4.0
e 319 161 10.0
e 319 144 1.0
e 319 61 8.0
